Version identifier: 20.1.0.0 | 2020-11-10 | 9bedb6d68
Tried aggregator 2 times.
MIP Presolve eliminated 1467 rows and 887 columns.
MIP Presolve modified 2558 coefficients.
Aggregator did 102 substitutions.
Reduced MIP has 987 rows, 818 columns, and 3095 nonzeros.
Reduced MIP has 195 binaries, 623 generals, 0 SOSs, and 0 indicators.
Presolve time = 0.01 sec. (5.28 ticks)
Found incumbent of value 1254.000000 after 0.02 sec. (8.17 ticks)
Probing fixed 30 vars, tightened 290 bounds.
Probing time = 0.00 sec. (0.91 ticks)
Tried aggregator 2 times.
MIP Presolve eliminated 447 rows and 109 columns.
MIP Presolve modified 119 coefficients.
Aggregator did 44 substitutions.
Reduced MIP has 496 rows, 665 columns, and 1592 nonzeros.
Reduced MIP has 254 binaries, 411 generals, 0 SOSs, and 0 indicators.
Presolve time = 0.00 sec. (2.13 ticks)
Probing time = 0.00 sec. (0.14 ticks)
Tried aggregator 1 time.
Detecting symmetries...
MIP Presolve modified 174 coefficients.
Reduced MIP has 496 rows, 665 columns, and 1592 nonzeros.
Reduced MIP has 254 binaries, 411 generals, 0 SOSs, and 0 indicators.
Presolve time = 0.00 sec. (1.28 ticks)
Probing time = 0.00 sec. (0.13 ticks)
Clique table members: 31.
MIP emphasis: balance optimality and feasibility.
MIP search method: dynamic search.
Parallel mode: deterministic, using up to 24 threads.
Root relaxation solution time = 0.00 sec. (1.73 ticks)

        Nodes                                         Cuts/
   Node  Left     Objective  IInf  Best Integer    Best Bound    ItCnt     Gap

*     0+    0                         1254.0000        0.0000           100.00%
*     0+    0                           33.0000        0.0000           100.00%
      0     0        1.0000    43       33.0000        1.0000      183   96.97%
      0     0        2.7143   127       33.0000     Cuts: 135      453   91.77%
*     0+    0                           11.0000        2.7143            75.32%
      0     0        4.5000   123       11.0000      Cuts: 80      535   59.09%
      0     0        5.0403   332       11.0000      Cuts: 48      827   54.18%
      0     0        5.0823   300       11.0000      Cuts: 68      886   53.80%
      0     0        5.1584   308       11.0000      Cuts: 30      920   53.11%
      0     0        5.2418   245       11.0000      Cuts: 29      973   52.35%
      0     0        5.3041   231       11.0000      Cuts: 58     1005   51.78%
      0     0        5.3041   248       11.0000      Cuts: 37     1039   51.78%
      0     0        5.3041   145       11.0000       Cuts: 4     1044   51.78%
*     0+    0                           10.0000        5.3041            46.96%
      0     0        5.3041   172       10.0000      Cuts: 71     1120   46.96%
*     0+    0                            9.0000        5.3041            41.07%
*     0+    0                            8.0000        5.3041            33.70%
      0     0        cutoff              8.0000        8.0000     1120    0.00%
Elapsed time = 0.20 sec. (96.49 ticks, tree = 0.01 MB, solutions = 6)

Cover cuts applied:  1
Implied bound cuts applied:  15
Flow cuts applied:  1
Mixed integer rounding cuts applied:  9
Zero-half cuts applied:  69
Gomory fractional cuts applied:  7

Root node processing (before b&c):
  Real time             =    0.20 sec. (96.61 ticks)
Parallel b&c, 24 threads:
  Real time             =    0.00 sec. (0.00 ticks)
  Sync time (average)   =    0.00 sec.
  Wait time (average)   =    0.00 sec.
                          ------------
Total (root+branch&cut) =    0.20 sec. (96.61 ticks)

Solution status = Optimal
Solution LB = 8
Solution UB = 8
Runtime = 0.212558 seconds
	Command being timed: "/home/min/git_repos/CS598MEBProject/CNT-ILP/build/cnt -s 2 ./output/k6_n30/simC_c1_k6_n30_u1_s3_del04.input-right.cnp"
	User time (seconds): 1.76
	System time (seconds): 0.03
	Percent of CPU this job got: 788%
	Elapsed (wall clock) time (h:mm:ss or m:ss): 0:00.22
	Average shared text size (kbytes): 0
	Average unshared data size (kbytes): 0
	Average stack size (kbytes): 0
	Average total size (kbytes): 0
	Maximum resident set size (kbytes): 59808
	Average resident set size (kbytes): 0
	Major (requiring I/O) page faults: 0
	Minor (reclaiming a frame) page faults: 12091
	Voluntary context switches: 2203
	Involuntary context switches: 255
	Swaps: 0
	File system inputs: 0
	File system outputs: 16
	Socket messages sent: 0
	Socket messages received: 0
	Signals delivered: 0
	Page size (bytes): 4096
	Exit status: 0
